% Generated FlatZinc statistics:
%%%mzn-stat: paths=0
%%%mzn-stat: flatBoolVars=912
%%%mzn-stat: flatIntVars=103
%%%mzn-stat: flatBoolConstraints=288
%%%mzn-stat: flatIntConstraints=997
%%%mzn-stat: evaluatedReifiedConstraints=48
%%%mzn-stat: evaluatedHalfReifiedConstraints=864
%%%mzn-stat: method="minimize"
%%%mzn-stat: flatTime=0.0984493
%%%mzn-stat-end
end = 108
carga_por_operario = [108, 0]
desbalance = 108
Job 1:  27(op:1)  28(op:1)  31(op:1)  39(op:1)  46(op:1)
Job 2:  85(op:1)  86(op:1)  92(op:1)  94(op:1) 107(op:1)
Job 3:   0(op:1)   5(op:1)  11(op:1)  13(op:1)  21(op:1)
Job 4:  71(op:1)  78(op:1)  79(op:1)  82(op:1) 101(op:1)
Job 5:  51(op:1)  56(op:1)  58(op:1)  62(op:1)  64(op:1)
----------
%%%mzn-stat: initTime=0.00441543
%%%mzn-stat: solveTime=59.9011
%%%mzn-stat: solutions=1
%%%mzn-stat: variables=1016
%%%mzn-stat: propagators=1285
%%%mzn-stat: propagations=934887110
%%%mzn-stat: nodes=9380158
%%%mzn-stat: failures=4690062
%%%mzn-stat: restarts=0
%%%mzn-stat: peakDepth=70
%%%mzn-stat-end
%%%mzn-stat: nSolutions=1
%%%mzn-stat-end
